p cnf 25 60
a 19 14 0
e 1 2 3 4 5 6 7 8 9 10 11 12 13 15 16 17 18 20 21 22 23 24 25 0
4 2 0
4 3 0
-2 -3 -4 0
5 -1 0
5 -4 0
1 4 -5 0
-7 5 0
-7 6 0
-5 -6 7 0
-9 -7 0
-9 -8 0
7 8 9 0
-11 -9 0
-11 10 0
9 -10 11 0
-12 5 0
-12 -1 0
-5 1 12 0
13 12 0
13 -2 0
-12 2 -13 0
-15 -14 0
-15 -7 0
14 7 15 0
16 -13 0
16 -15 0
13 15 -16 0
17 11 0
17 16 0
-11 -16 -17 0
19 -18 0
19 -2 0
18 2 -19 0
20 -4 0
20 -6 0
4 6 -20 0
21 -4 0
21 20 0
4 -20 -21 0
-22 19 0
-22 21 0
-19 -21 22 0
-17 22 -23 0
17 -22 -23 0
-17 -22 23 0
17 22 23 0
-3 6 -24 0
3 -6 -24 0
-3 -6 24 0
3 6 24 0
-23 24 -25 0
23 -24 -25 0
-23 -24 25 0
23 24 25 0
-16 -10 11 -1 0
-10 -22 3 1 0
3 -23 15 10 18 -25 -13 0
-9 21 -11 16 19 0
6 -3 4 18 19 -25 0
25 0
